# Example page reference trace 
# These are optional comment lines 
0 7 
0 0 
0 1 
0 2
0 0
0 3
0 0
0 4
0 2
0 3
0 0
0 3
0 2
0 1
0 2
0 0
0 1
0 7
0 0
0 1
